NAME          ClpDefau
ROWS
 N  OBJROW
 L  R_112_0
 L  R_112_1
 L  R_112_2
 L  R_112_3
 L  R_112_4
 L  R_112_5
 L  R_112_6
 L  R_112_7
COLUMNS
    x_0       OBJROW     -8.           R_112_0   4.          
    x_0       R_112_1   10.            R_112_2   7.          
    x_0       R_112_3   9.             R_112_5   8.          
    x_0       R_112_6   1.          
    x_1       OBJROW     -12.          R_112_0   6.          
    x_1       R_112_2   9.             R_112_3   3.          
    x_1       R_112_4   1.             R_112_5   3.          
    x_1       R_112_6   9.             R_112_7   9.          
    x_2       OBJROW     -11.          R_112_0   3.          
    x_2       R_112_2   7.             R_112_3   6.          
    x_2       R_112_4   6.             R_112_5   8.          
    x_2       R_112_6   7.             R_112_7   8.          
    x_3       OBJROW     -47.          R_112_0   4.          
    x_3       R_112_1   8.             R_112_2   6.          
    x_3       R_112_3   8.             R_112_5   10.         
    x_3       R_112_6   9.             R_112_7   8.          
    x_4       OBJROW     -22.          R_112_0   6.          
    x_4       R_112_4   8.             R_112_5   9.          
    x_4       R_112_6   9.             R_112_7   10.         
    x_5       OBJROW     -95.          R_112_0   4.          
    x_5       R_112_1   6.             R_112_3   2.          
    x_5       R_112_4   6.             R_112_5   4.          
    x_5       R_112_7   10.         
    x_6       OBJROW     -86.          R_112_0   5.          
    x_6       R_112_1   2.             R_112_2   3.          
    x_6       R_112_4   4.             R_112_6   1.          
    x_6       R_112_7   6.          
    x_7       OBJROW     -40.          R_112_0   1.          
    x_7       R_112_1   2.             R_112_2   1.          
    x_7       R_112_3   3.             R_112_5   3.          
    x_7       R_112_6   1.             R_112_7   1.          
RHS
    RHS       R_112_0   23.            R_112_1   17.         
    RHS       R_112_2   10.            R_112_3   8.          
    RHS       R_112_4   30.            R_112_5   15.         
    RHS       R_112_6   26.            R_112_7   29.         
BOUNDS
 UI BOUND     x_0       100.        
 UI BOUND     x_1       100.        
 UI BOUND     x_2       100.        
 UI BOUND     x_3       100.        
 UI BOUND     x_4       100.        
 UI BOUND     x_5       100.        
 UI BOUND     x_6       100.        
 UI BOUND     x_7       100.        
ENDATA
